;; ===================== PROJECTED CANON (QE) =====================
;; Each clause below is entailed by Proj = ∃W.F over the canonical vocabulary.
;; Units appear first for clarity; OR-clauses (SAT-filtered) follow.
;; ==================================================================

;; Unit Bool constraints (entailed)
(assert (not patient_has_finding_of_compression_fracture_now))
(assert (not patient_has_finding_of_deformity_of_chest_wall_now))
(assert (not patient_has_finding_of_kyphosis_deformity_of_spine_now))
(assert (not patient_has_finding_of_skin_lesion_now@@located_on_the_back))
(assert (not patient_has_undergone_operation_on_lung_inthehistory))
